5 5
0 23 2 9 3 34 4 46 1 78
2 4 0 30 3 95 4 75 1 99
4 72 0 3 2 14 1 60 3 77
3 45 4 96 0 34 1 45 2 61
1 83 3 16 0 66 2 40 4 17
-1
0 2 5
0 1 2 4 5
0 1 3 5
0 1 3 4 5
0 2 3 5
-2
32 214
5 43 275 416
107 131 300
64 217 240 429
122 175 247

396 9
0 11 6 22 17
20 13 4 18 9
5 1 12 23 19
2 15 21 7 14
10 3 16 8 24
